proyfinal/src/viki/013/experimentInOfficeAgust.take6.output/d4ba25a6-0258-4da3-b65d-42dfed8e8fba.als.out
Reading from standard input... Use '--help' for help.
============================[ Problem Statistics ]=============================
|                                                                             |
|  Number of variables:         87638                                         |
|  Number of clauses:          161767                                         |
|  Parse time:                   0.04 s                                       |
|                                                                             |
============================[ Search Statistics ]==============================
| Conflicts |          ORIGINAL         |          LEARNT          | Progress |
|           |    Vars  Clauses Literals |    Limit  Clauses Lit/Cl |          |
===============================================================================
|       100 |   63383   109073   271812 |    39993      100      7 | 27.676 % |
|       250 |   63383   109073   271812 |    43992      250     37 | 27.676 % |
|       475 |   63383   109073   271812 |    48392      475     46 | 27.676 % |
|       812 |   63383   109073   271812 |    53231      812     66 | 27.676 % |
|      1318 |   63383   109073   271812 |    58554     1318     63 | 27.676 % |
|      2077 |   63382   109029   271722 |    64409     2075     59 | 27.677 % |
|      3216 |   63356   108886   271410 |    70850     2465     53 | 27.707 % |
|      4924 |   63356   108886   271410 |    77935     4173     63 | 27.707 % |
|      7486 |   63294   108738   271068 |    85729     6725     75 | 27.778 % |
|     11330 |   58433    92833   231925 |    94302     9666     75 | 33.325 % |
|     17096 |   58341    92596   231359 |   103732    13242     70 | 33.430 % |
===============================================================================
restarts              : 78
conflicts             : 22135          (7979 /sec)
decisions             : 67354          (0.00 % random) (24278 /sec)
propagations          : 29471799       (10623278 /sec)
conflict literals     : 1530877        (50.90 % deleted)
Memory used           : 37.17 MB
CPU time              : 2.77427 s

UNSATISFIABLE
